/* Transportation problem*/

/* Objective function */

Min: 1.52 X1a + 1.60 X1b + 1.40 X1c + 1.70 X2a + 1.63 X2b + 1.55 X2c + 1.45 X3c + 1.57 X3b + 1.30 X3c + 5.15 Xa1 + 5.69 Xa2 + 6.13 Xa3 + 5.63 Xa4 + 5.80 Xa5 + 5.12 Xb1 + 5.47 Xb2 + 6.05 Xb3 + 6.12 Xb4 + 5.71 Xb5 + 5.32 Xc1 + 6.16 Xc2 + 6.25 Xc3 + 6.17 Xc4 + 5.87 Xc5;

/* Constraints */

X1a + X1b + X1c = 93;
X2a + X2b + X2c = 88;
X3a + X3b + X3c = 95;
Xa1 + Xb1 + Xc1 = 30;
Xa2 + Xb2 + Xc2 = 57;
Xa3 + Xb3 + Xc3 = 48;
Xa4 + Xb4 + Xc4 = 91;
Xa5 + Xb5 + Xc5 = 48;
Xa6 + Xb6 + Xc6 = 2;
